eval/18-encs/equiv_enc_499.smt2
; PUSH cw_3 SHA3 PUSH 0x00 ADD PUSH cw_3 SWAP1 => PUSH cw_3 SWAP1 DUP2 SHA3
(set-option :produce-proofs true)
; 
(set-info :status unknown)
(declare-fun storage_t ((_ BitVec 256) (_ BitVec 256) (_ BitVec 256) Int (_ BitVec 256)) (_ BitVec 256))
(declare-fun w_3 () (_ BitVec 256))
(declare-fun storage_s ((_ BitVec 256) (_ BitVec 256) (_ BitVec 256) Int (_ BitVec 256)) (_ BitVec 256))
(declare-fun exc_halt_t (Int) Bool)
(declare-fun exc_halt_s (Int) Bool)
(declare-fun stack_t ((_ BitVec 256) (_ BitVec 256) (_ BitVec 256) Int (_ BitVec 6)) (_ BitVec 256))
(declare-fun stack_s ((_ BitVec 256) (_ BitVec 256) (_ BitVec 256) Int (_ BitVec 6)) (_ BitVec 256))
(declare-fun sc_t (Int) (_ BitVec 6))
(declare-fun sc_s (Int) (_ BitVec 6))
(declare-fun used_gas_t ((_ BitVec 256) (_ BitVec 256) (_ BitVec 256) Int) Int)
(declare-fun used_gas_s ((_ BitVec 256) (_ BitVec 256) (_ BitVec 256) Int) Int)
(declare-fun f_SHA3 ((_ BitVec 256) (_ BitVec 256) (_ BitVec 256) (_ BitVec 256) (_ BitVec 256)) (_ BitVec 256))
(assert
 (exists ((x_0 (_ BitVec 256)) (x_SHA3_0 (_ BitVec 256)) )(let (($x10737 (forall ((w (_ BitVec 256)) )(let ((?x1283 (storage_t x_0 w_3 x_SHA3_0 4 w)))
 (let ((?x2229 (storage_s x_0 w_3 x_SHA3_0 6 w)))
 (= ?x2229 ?x1283))))
 ))
 (let (($x7854 (exc_halt_t 4)))
 (let (($x772 (exc_halt_s 6)))
 (let (($x4404 (= $x772 $x7854)))
 (let (($x9901 (forall ((n (_ BitVec 6)) )(let ((?x11618 (stack_t x_0 w_3 x_SHA3_0 4 n)))
 (let ((?x165 (stack_s x_0 w_3 x_SHA3_0 6 n)))
 (let (($x3952 (= ?x165 ?x11618)))
 (let ((?x4818 (sc_t 4)))
 (let (($x1923 (bvsle ?x4818 n)))
 (or $x1923 $x3952)))))))
 ))
 (let ((?x4818 (sc_t 4)))
 (let ((?x926 (sc_s 6)))
 (let (($x7899 (= ?x926 ?x4818)))
 (let ((?x7292 (used_gas_t x_0 w_3 x_SHA3_0 0)))
 (let ((?x11377 (used_gas_s x_0 w_3 x_SHA3_0 0)))
 (let (($x2182 (= ?x11377 ?x7292)))
 (let (($x11084 (forall ((w (_ BitVec 256)) )(let ((?x2415 (storage_t x_0 w_3 x_SHA3_0 0 w)))
 (let ((?x1808 (storage_s x_0 w_3 x_SHA3_0 0 w)))
 (= ?x1808 ?x2415))))
 ))
 (let (($x56 (exc_halt_t 0)))
 (let (($x57 (exc_halt_s 0)))
 (let (($x58 (= $x57 $x56)))
 (let (($x7526 (forall ((n (_ BitVec 6)) )(let ((?x3361 (stack_t x_0 w_3 x_SHA3_0 0 n)))
 (let ((?x7523 (stack_s x_0 w_3 x_SHA3_0 0 n)))
 (let (($x3796 (= ?x7523 ?x3361)))
 (let ((?x63 (sc_t 0)))
 (let (($x2855 (bvsle ?x63 n)))
 (or $x2855 $x3796)))))))
 ))
 (let ((?x63 (sc_t 0)))
 (let ((?x72 (sc_s 0)))
 (let (($x73 (= ?x72 ?x63)))
 (let (($x11609 (= $x7854 (or (exc_halt_t 3) (not (bvsle (_ bv0 6) (bvadd (_ bv62 6) (sc_t 3))))))))
 (let (($x2209 (forall ((w (_ BitVec 256)) )(let ((?x3334 (storage_t x_0 w_3 x_SHA3_0 3 w)))
 (let ((?x1283 (storage_t x_0 w_3 x_SHA3_0 4 w)))
 (= ?x1283 ?x3334))))
 ))
 (let (($x3910 (forall ((n (_ BitVec 6)) )(let ((?x477 (stack_t x_0 w_3 x_SHA3_0 3 n)))
 (let ((?x11618 (stack_t x_0 w_3 x_SHA3_0 4 n)))
 (let ((?x6438 (sc_t 3)))
 (let ((?x10934 (bvadd (_ bv62 6) ?x6438)))
 (let (($x6962 (bvsle ?x10934 n)))
 (or $x6962 (= ?x11618 ?x477))))))))
 ))
 (let ((?x6438 (sc_t 3)))
 (let ((?x5797 (bvadd (_ bv63 6) ?x6438)))
 (let (($x8857 (= ?x4818 ?x5797)))
 (let (($x1368 (= (used_gas_t x_0 w_3 x_SHA3_0 4) (+ 30 (used_gas_t x_0 w_3 x_SHA3_0 3)))))
 (let ((?x8130 (stack_t x_0 w_3 x_SHA3_0 3 ?x5797)))
 (let ((?x378 (f_SHA3 x_0 w_3 x_SHA3_0 ?x8130 (stack_t x_0 w_3 x_SHA3_0 3 (bvadd (_ bv62 6) ?x6438)))))
 (let (($x7778 (not (= ((_ extract 6 6) (bvadd (_ bv1 7) (concat (_ bv0 1) (sc_t 2)))) (_ bv0 1)))))
 (let (($x2163 (exc_halt_t 2)))
 (let (($x6783 (exc_halt_t 3)))
 (let (($x4773 (forall ((w (_ BitVec 256)) )(let ((?x9134 (storage_t x_0 w_3 x_SHA3_0 2 w)))
 (let ((?x3334 (storage_t x_0 w_3 x_SHA3_0 3 w)))
 (= ?x3334 ?x9134))))
 ))
 (let (($x3551 (forall ((n (_ BitVec 6)) )(let ((?x11614 (stack_t x_0 w_3 x_SHA3_0 2 n)))
 (let ((?x477 (stack_t x_0 w_3 x_SHA3_0 3 n)))
 (or (= ?x477 ?x11614) (bvsle (bvadd (_ bv62 6) (sc_t 2)) n)))))
 ))
 (let (($x10335 (= ?x6438 (bvadd (_ bv1 6) (sc_t 2)))))
 (let ((?x11615 (used_gas_t x_0 w_3 x_SHA3_0 3)))
 (let ((?x2714 (sc_t 2)))
 (let ((?x5618 (bvadd (_ bv63 6) ?x2714)))
 (let ((?x7475 (stack_t x_0 w_3 x_SHA3_0 2 ?x5618)))
 (let ((?x3500 (bvadd (_ bv62 6) ?x2714)))
 (let ((?x3945 (stack_t x_0 w_3 x_SHA3_0 2 ?x3500)))
 (let (($x7981 (= $x2163 (or (exc_halt_t 1) (not (bvsle (_ bv0 6) (bvadd (_ bv62 6) (sc_t 1))))))))
 (let (($x5925 (forall ((w (_ BitVec 256)) )(let ((?x6094 (storage_t x_0 w_3 x_SHA3_0 1 w)))
 (let ((?x9134 (storage_t x_0 w_3 x_SHA3_0 2 w)))
 (= ?x9134 ?x6094))))
 ))
 (let (($x623 (forall ((n (_ BitVec 6)) )(let ((?x7154 (sc_t 1)))
 (let ((?x5273 (bvadd (_ bv62 6) ?x7154)))
 (let (($x2213 (bvsle ?x5273 n)))
 (let ((?x1828 (stack_t x_0 w_3 x_SHA3_0 1 n)))
 (let ((?x11614 (stack_t x_0 w_3 x_SHA3_0 2 n)))
 (or (= ?x11614 ?x1828) $x2213)))))))
 ))
 (let ((?x11205 (used_gas_t x_0 w_3 x_SHA3_0 2)))
 (let (($x8377 (exc_halt_t 1)))
 (let (($x7349 (= $x8377 (or $x56 (not (= ((_ extract 6 6) (bvadd (_ bv1 7) (concat (_ bv0 1) ?x63))) (_ bv0 1)))))))
 (let (($x3586 (forall ((w (_ BitVec 256)) )(let ((?x2415 (storage_t x_0 w_3 x_SHA3_0 0 w)))
 (let ((?x6094 (storage_t x_0 w_3 x_SHA3_0 1 w)))
 (= ?x6094 ?x2415))))
 ))
 (let (($x2991 (forall ((n (_ BitVec 6)) )(let ((?x3361 (stack_t x_0 w_3 x_SHA3_0 0 n)))
 (let ((?x1828 (stack_t x_0 w_3 x_SHA3_0 1 n)))
 (let ((?x63 (sc_t 0)))
 (let (($x2855 (bvsle ?x63 n)))
 (or $x2855 (= ?x1828 ?x3361)))))))
 ))
 (let ((?x7154 (sc_t 1)))
 (let (($x6089 (= ?x7154 (bvadd (_ bv1 6) ?x63))))
 (let (($x6274 (= $x772 (or (exc_halt_s 5) (not (bvsle (_ bv0 6) (bvadd (_ bv62 6) (sc_s 5))))))))
 (let (($x1613 (forall ((w (_ BitVec 256)) )(let ((?x5929 (storage_s x_0 w_3 x_SHA3_0 5 w)))
 (let ((?x2229 (storage_s x_0 w_3 x_SHA3_0 6 w)))
 (= ?x2229 ?x5929))))
 ))
 (let (($x9780 (forall ((n (_ BitVec 6)) )(let ((?x4319 (sc_s 5)))
 (let ((?x4138 (bvadd (_ bv62 6) ?x4319)))
 (let (($x7050 (bvsle ?x4138 n)))
 (let ((?x8741 (stack_s x_0 w_3 x_SHA3_0 5 n)))
 (let ((?x165 (stack_s x_0 w_3 x_SHA3_0 6 n)))
 (or (= ?x165 ?x8741) $x7050)))))))
 ))
 (let ((?x4319 (sc_s 5)))
 (let (($x3654 (= ?x926 ?x4319)))
 (let (($x7586 (= (used_gas_s x_0 w_3 x_SHA3_0 6) (+ 3 (used_gas_s x_0 w_3 x_SHA3_0 5)))))
 (let (($x6049 (= (stack_s x_0 w_3 x_SHA3_0 6 (bvadd (_ bv62 6) ?x926)) (stack_s x_0 w_3 x_SHA3_0 5 (bvadd (_ bv63 6) ?x4319)))))
 (let (($x8245 (= (stack_s x_0 w_3 x_SHA3_0 6 (bvadd (_ bv63 6) ?x926)) (stack_s x_0 w_3 x_SHA3_0 5 (bvadd (_ bv62 6) ?x4319)))))
 (let (($x7172 (exc_halt_s 4)))
 (let (($x5288 (or $x7172 (not (= ((_ extract 6 6) (bvadd (_ bv1 7) (concat (_ bv0 1) (sc_s 4)))) (_ bv0 1))))))
 (let (($x11317 (exc_halt_s 5)))
 (let (($x9618 (= $x11317 $x5288)))
 (let (($x6401 (forall ((w (_ BitVec 256)) )(let ((?x9478 (storage_s x_0 w_3 x_SHA3_0 4 w)))
 (let ((?x5929 (storage_s x_0 w_3 x_SHA3_0 5 w)))
 (= ?x5929 ?x9478))))
 ))
 (let (($x7173 (forall ((n (_ BitVec 6)) )(let ((?x8223 (stack_s x_0 w_3 x_SHA3_0 4 n)))
 (let ((?x8741 (stack_s x_0 w_3 x_SHA3_0 5 n)))
 (let ((?x4305 (sc_s 4)))
 (let (($x4917 (bvsle ?x4305 n)))
 (or $x4917 (= ?x8741 ?x8223)))))))
 ))
 (let (($x10302 (= ?x4319 (bvadd (_ bv1 6) (sc_s 4)))))
 (let ((?x8628 (used_gas_s x_0 w_3 x_SHA3_0 5)))
 (let (($x2571 (= $x7172 (or (exc_halt_s 3) (not (bvsle (_ bv0 6) (bvadd (_ bv62 6) (sc_s 3))))))))
 (let (($x11062 (forall ((w (_ BitVec 256)) )(let ((?x1884 (storage_s x_0 w_3 x_SHA3_0 3 w)))
 (let ((?x9478 (storage_s x_0 w_3 x_SHA3_0 4 w)))
 (= ?x9478 ?x1884))))
 ))
 (let (($x9945 (forall ((n (_ BitVec 6)) )(let ((?x11624 (stack_s x_0 w_3 x_SHA3_0 3 n)))
 (let ((?x8223 (stack_s x_0 w_3 x_SHA3_0 4 n)))
 (let ((?x275 (sc_s 3)))
 (let ((?x1134 (bvadd (_ bv62 6) ?x275)))
 (let (($x7946 (bvsle ?x1134 n)))
 (or $x7946 (= ?x8223 ?x11624))))))))
 ))
 (let ((?x275 (sc_s 3)))
 (let ((?x9635 (bvadd (_ bv63 6) ?x275)))
 (let ((?x4305 (sc_s 4)))
 (let (($x6285 (= ?x4305 ?x9635)))
 (let ((?x2265 (used_gas_s x_0 w_3 x_SHA3_0 4)))
 (let ((?x10999 (bvadd (stack_s x_0 w_3 x_SHA3_0 3 ?x9635) (stack_s x_0 w_3 x_SHA3_0 3 (bvadd (_ bv62 6) ?x275)))))
 (let (($x9685 (not (= ((_ extract 6 6) (bvadd (_ bv1 7) (concat (_ bv0 1) (sc_s 2)))) (_ bv0 1)))))
 (let (($x247 (exc_halt_s 2)))
 (let (($x292 (exc_halt_s 3)))
 (let (($x590 (= $x292 (or $x247 $x9685))))
 (let (($x921 (forall ((w (_ BitVec 256)) )(let ((?x9751 (storage_s x_0 w_3 x_SHA3_0 2 w)))
 (let ((?x1884 (storage_s x_0 w_3 x_SHA3_0 3 w)))
 (= ?x1884 ?x9751))))
 ))
 (let (($x3407 (forall ((n (_ BitVec 6)) )(let ((?x260 (stack_s x_0 w_3 x_SHA3_0 2 n)))
 (let ((?x11624 (stack_s x_0 w_3 x_SHA3_0 3 n)))
 (let ((?x218 (sc_s 2)))
 (let (($x11461 (bvsle ?x218 n)))
 (or $x11461 (= ?x11624 ?x260)))))))
 ))
 (let (($x2016 (= ?x275 (bvadd (_ bv1 6) (sc_s 2)))))
 (let ((?x9595 (used_gas_s x_0 w_3 x_SHA3_0 3)))
 (let (($x7098 (= $x247 (or (exc_halt_s 1) (not (bvsle (_ bv0 6) (bvadd (_ bv62 6) (sc_s 1))))))))
 (let (($x157 (forall ((w (_ BitVec 256)) )(let ((?x2567 (storage_s x_0 w_3 x_SHA3_0 1 w)))
 (let ((?x9751 (storage_s x_0 w_3 x_SHA3_0 2 w)))
 (= ?x9751 ?x2567))))
 ))
 (let (($x8067 (forall ((n (_ BitVec 6)) )(let ((?x154 (sc_s 1)))
 (let ((?x5676 (bvadd (_ bv62 6) ?x154)))
 (let (($x8928 (bvsle ?x5676 n)))
 (let ((?x8755 (stack_s x_0 w_3 x_SHA3_0 1 n)))
 (let ((?x260 (stack_s x_0 w_3 x_SHA3_0 2 n)))
 (or (= ?x260 ?x8755) $x8928)))))))
 ))
 (let ((?x154 (sc_s 1)))
 (let ((?x11673 (bvadd (_ bv63 6) ?x154)))
 (let ((?x218 (sc_s 2)))
 (let (($x9524 (= ?x218 ?x11673)))
 (let ((?x9057 (used_gas_s x_0 w_3 x_SHA3_0 2)))
 (let ((?x3750 (f_SHA3 x_0 w_3 x_SHA3_0 (stack_s x_0 w_3 x_SHA3_0 1 ?x11673) (stack_s x_0 w_3 x_SHA3_0 1 (bvadd (_ bv62 6) ?x154)))))
 (let (($x189 (exc_halt_s 1)))
 (let (($x9208 (= $x189 (or $x57 (not (= ((_ extract 6 6) (bvadd (_ bv1 7) (concat (_ bv0 1) ?x72))) (_ bv0 1)))))))
 (let (($x1961 (forall ((w (_ BitVec 256)) )(let ((?x1808 (storage_s x_0 w_3 x_SHA3_0 0 w)))
 (let ((?x2567 (storage_s x_0 w_3 x_SHA3_0 1 w)))
 (= ?x2567 ?x1808))))
 ))
 (let (($x11541 (forall ((n (_ BitVec 6)) )(let ((?x72 (sc_s 0)))
 (let (($x10612 (bvsle ?x72 n)))
 (let ((?x7523 (stack_s x_0 w_3 x_SHA3_0 0 n)))
 (let ((?x8755 (stack_s x_0 w_3 x_SHA3_0 1 n)))
 (or (= ?x8755 ?x7523) $x10612))))))
 ))
 (let (($x6169 (= ?x154 (bvadd (_ bv1 6) ?x72))))
 (let (($x2928 (forall ((w0 (_ BitVec 256)) (w1 (_ BitVec 256)) )(let (($x11458 (and (= (stack_s x_0 w_3 x_SHA3_0 1 (bvadd (_ bv63 6) (sc_s 1))) w0) (= (stack_s x_0 w_3 x_SHA3_0 1 (bvadd (_ bv62 6) (sc_s 1))) w1))))
 (let ((?x5629 (f_SHA3 x_0 w_3 x_SHA3_0 w0 w1)))
 (= ?x5629 (ite $x11458 x_SHA3_0 (_ bv0 256))))))
 ))
 (let (($x8031 (forall ((w (_ BitVec 256)) )(let ((?x1808 (storage_s x_0 w_3 x_SHA3_0 0 w)))
 (= ?x1808 (_ bv0 256))))
 ))
 (let (($x1660 (= ?x11377 0)))
 (let (($x10766 (not $x57)))
 (let (($x10370 (= (stack_s x_0 w_3 x_SHA3_0 0 (_ bv0 6)) x_0)))
 (let (($x7865 (= ?x72 (_ bv1 6))))
 (and $x7865 $x10370 $x10766 $x1660 $x8031 $x2928 (= (stack_s x_0 w_3 x_SHA3_0 1 ?x72) w_3) (= (used_gas_s x_0 w_3 x_SHA3_0 1) (+ 3 ?x11377)) $x6169 $x11541 $x1961 $x9208 (= (stack_s x_0 w_3 x_SHA3_0 2 (bvadd (_ bv63 6) ?x218)) ?x3750) (= ?x9057 (+ 30 (used_gas_s x_0 w_3 x_SHA3_0 1))) $x9524 $x8067 $x157 $x7098 (= (stack_s x_0 w_3 x_SHA3_0 3 ?x218) (_ bv0 256)) (= ?x9595 (+ 3 ?x9057)) $x2016 $x3407 $x921 $x590 (= (stack_s x_0 w_3 x_SHA3_0 4 (bvadd (_ bv63 6) ?x4305)) ?x10999) (= ?x2265 (+ 3 ?x9595)) $x6285 $x9945 $x11062 $x2571 (= (stack_s x_0 w_3 x_SHA3_0 5 ?x4305) w_3) (= ?x8628 (+ 3 ?x2265)) $x10302 $x7173 $x6401 $x9618 $x8245 $x6049 $x7586 $x3654 $x9780 $x1613 $x6274 (= (stack_t x_0 w_3 x_SHA3_0 1 ?x63) w_3) (= (used_gas_t x_0 w_3 x_SHA3_0 1) (+ 3 ?x7292)) $x6089 $x2991 $x3586 $x7349 (= ?x7475 (stack_t x_0 w_3 x_SHA3_0 1 (bvadd (_ bv62 6) ?x7154))) (= ?x3945 (stack_t x_0 w_3 x_SHA3_0 1 (bvadd (_ bv63 6) ?x7154))) (= ?x11205 (+ 3 (used_gas_t x_0 w_3 x_SHA3_0 1))) (= ?x2714 ?x7154) $x623 $x5925 $x7981 (= ?x8130 ?x3945) (= (stack_t x_0 w_3 x_SHA3_0 3 ?x3500) ?x3945) (= (stack_t x_0 w_3 x_SHA3_0 3 ?x5618) ?x7475) (= ?x11615 (+ 3 ?x11205)) $x10335 $x3551 $x4773 (= $x6783 (or $x2163 (not (bvsle (_ bv0 6) ?x3500)) $x7778)) (= (stack_t x_0 w_3 x_SHA3_0 4 (bvadd (_ bv63 6) ?x4818)) ?x378) $x1368 $x8857 $x3910 $x2209 $x11609 $x73 $x7526 $x58 $x11084 $x2182 (not (and $x7899 $x9901 $x4404 $x10737)))))))))))))))))))))))))))))))))))))))))))))))))))))))))))))))))))))))))))))))))))))))))))))))))))))))))))
 )
(check-sat)
(get-proof)
